container_size = [30, 45, 15];
Box = B(1..8);
no_boxes = [29, 37, 34, 19, 16, 17, 25, 23];
box_size =
[|       Length: Width: Height: 
 | B(1):      4,     3,      2
 | B(2):      4,     4,      1
 | B(3):      3,     3,      2
 | B(4):      5,     3,      4
 | B(5):      8,     2,      2
 | B(6):      4,     3,      3
 | B(7):      9,     2,      2
 | B(8):      2,     2,      1
 |];
